problems/csplib-prob019/MagicSquares-models/01_noch_lvlPruned/O2/minion/model-03-solution000001.eprime-solution
language ESSENCE' 1.0

letting ms_Function1DPartial_Flags be [true, true, true, true, true, true, true, true, true; int(1..9)]
letting ms_Function1DPartial_Values be [2, 7, 6, 9, 5, 1, 4, 3, 8; int(1..9)]
