problems/csplib-prob019/MagicSquares-models/01_noch_lvlPruned/O2/minion/model-03-solution000001.solution
language Essence 1.3

letting ms be function(1 --> 2, 2 --> 7, 3 --> 6, 4 --> 9, 5 --> 5, 6 --> 1, 7 --> 4, 8 --> 3, 9 --> 8)
